letting n =  10
letting blocks =  [[1, 2], [1, 8], [2, 2], [2, 4], [2, 10], [3, 9], [4, 5], [4, 10], [5, 2], [5, 10], [6, 4], [6, 8], [7, 5], [8, 4], [8, 9], [9, 1], [9, 6], [9, 8], [9, 9], [9, 10], [10, 1], [10, 2], [10, 5], [10, 7]]
